# Solution for model GasLib-40
# Objective value = 1.0714272718703336e+01
loadshed[innode_1] 0
loadshed[innode_2] 0
loadshed[innode_3] 0
loadshed[innode_4] 0
loadshed[innode_5] 0
loadshed[innode_6] 0
loadshed[innode_7] 0
loadshed[innode_8] 0
loadshed[source_1] -3.1242162916518357e-01
loadshed[source_2] 8.1283067335779280e-02
loadshed[source_3] 2.9891169038168863e-01
loadshed[sink_1] 0
loadshed[sink_2] 0
loadshed[sink_3] 0
loadshed[sink_4] 0
loadshed[sink_5] 0
loadshed[sink_6] 0
loadshed[sink_7] 0
loadshed[sink_8] 0
loadshed[sink_9] 0
loadshed[sink_10] 0
loadshed[sink_11] 0
loadshed[sink_12] 6.5514024267230586e-01
loadshed[sink_13] 0
loadshed[sink_14] 0
loadshed[sink_15] 0
loadshed[sink_16] 0
loadshed[sink_17] 0
loadshed[sink_18] 0
loadshed[sink_19] 0
loadshed[sink_20] 0
loadshed[sink_21] 0
loadshed[sink_22] 0
loadshed[sink_23] 0
loadshed[sink_24] 0
loadshed[sink_25] 0
loadshed[sink_26] 0
loadshed[sink_27] 0
loadshed[sink_28] 0
loadshed[sink_29] 0
flow[source_1,sink_3] 2.0748109991628752e+02
flow[innode_1,sink_16] 1.6354166666666970e+01
flow[innode_6,sink_13] 3.6439210523545853e+00
flow[sink_13,sink_14] -1.2710245614312083e+01
flow[sink_14,sink_10] -2.9064412280978786e+01
flow[sink_25,sink_26] 1.7575202768418580e+02
flow[sink_26,sink_9] 1.2176471097937704e+02
flow[sink_9,sink_18] 1.0541054431271037e+02
flow[sink_26,sink_4] 3.7633150038142162e+01
flow[sink_4,sink_20] 0
flow[sink_18,sink_6] 89.0563776460437
flow[sink_25,innode_8] -1.7477276658295114e+02
flow[sink_6,sink_7] 3.9993877646043529e+01
flow[sink_6,sink_22] 3.2708333333333641e+01
flow[sink_7,sink_24] 3.8348227281296666e+01
flow[sink_22,sink_1] 1.6354166666666970e+01
flow[sink_24,sink_21] 21.99406061463
flow[sink_21,sink_12] 5.6398939479633317e+00
flow[sink_7,sink_5] -1.4708516301919673e+01
flow[sink_5,sink_17] -3.1062682968586614e+01
flow[sink_17,sink_4] -2.1278983371475476e+01
flow[sink_17,sink_8] -2.6137866263776989e+01
flow[sink_3,sink_23] 16.3541666666697
flow[sink_8,sink_20] -4.2492032930443656e+01
flow[sink_25,sink_20] 5.8846199597110342e+01
flow[sink_25,sink_15] -79.8235484173667
flow[sink_15,sink_29] 0
flow[sink_29,sink_28] 1.6354166666667879e+01
flow[sink_29,sink_2] 1.1253188175070004e+02
flow[sink_2,sink_15] 9.6177715084033366e+01
flow[sink_29,innode_7] -1.4524021508403462e+02
flow[innode_4,sink_19] 4.2617382681829440e+01
flow[sink_19,innode_3] 7.8126912280979354e+01
flow[innode_4,innode_5] 6.8217862932482035e+01
flow[sink_27,innode_5] -6.8217862932482035e+01
flow[sink_27,sink_19] 5.1863696265815406e+01
flow[sink_10,sink_11] 3.2708333333333641e+01
flow[sink_10,innode_2] 0
flow[sink_10,innode_3] -7.8126912280979354e+01
flow[innode_6,sink_25] -3.6439210523545853e+00
flow[sink_11,innode_1] 1.6354166666666970e+01
flow[sink_19,innode_2] 0
flow[source_3,innode_4] 1.1083524561431152e+02
flow[source_2,innode_7] 1.4524021508403462e+02
flow[sink_3,innode_8] 1.7477276658295114e+02
pressure[innode_1] 7.4802524947562162e+01
pressure[innode_2] 79.2867112378491
pressure[innode_3] 7.9113708037515948e+01
pressure[innode_4] 81.01325
pressure[innode_5] 8.0966326156735988e+01
pressure[innode_6] 7.3576862625559158e+01
pressure[innode_7] 81.01325
pressure[innode_8] 8.0319719943632890e+01
pressure[source_1] 81.01325
pressure[source_2] 81.01325
pressure[source_3] 81.01325
pressure[sink_1] 4.5617602591112927e+01
pressure[sink_2] 7.4278083659714255e+01
pressure[sink_3] 8.0319719943632890e+01
pressure[sink_4] 5.6413974434414278e+01
pressure[sink_5] 5.3286816501596974e+01
pressure[sink_6] 47.7186802015003
pressure[sink_7] 4.7169659592395959e+01
pressure[sink_8] 5.6587011453874304e+01
pressure[sink_9] 5.3910818311020186e+01
pressure[sink_10] 7.4954226255165707e+01
pressure[sink_11] 7.4802524947562162e+01
pressure[sink_12] 1.0132499999999998e+00
pressure[sink_13] 7.3556774297753307e+01
pressure[sink_14] 7.3579520364953638e+01
pressure[sink_15] 7.3964084617191872e+01
pressure[sink_16] 7.3780875112744482e+01
pressure[sink_17] 5.5600761855235248e+01
pressure[sink_18] 50.0967506403318
pressure[sink_19] 79.2867112378491
pressure[sink_20] 5.9548108572150021e+01
pressure[sink_21] 3.0202329392834719e+00
pressure[sink_22] 4.6681371733467941e+01
pressure[sink_23] 8.0155001931973118e+01
pressure[sink_24] 3.2637967256710718e+00
pressure[sink_25] 7.3576862625559158e+01
pressure[sink_26] 6.1198750529204020e+01
pressure[sink_27] 8.0400243947453347e+01
pressure[sink_28] 76.8333609507738
pressure[sink_29] 7.7128643224390970e+01
interdiction[source_1,sink_3] 0
interdiction[innode_1,sink_16] 0
interdiction[innode_6,sink_13] 0
interdiction[sink_13,sink_14] 0
interdiction[sink_14,sink_10] 0
interdiction[sink_25,sink_26] 0
interdiction[sink_26,sink_9] 0
interdiction[sink_9,sink_18] 0
interdiction[sink_26,sink_4] 0
interdiction[sink_4,sink_20] 1
interdiction[sink_18,sink_6] 0
interdiction[sink_25,innode_8] 0
interdiction[sink_6,sink_7] 0
interdiction[sink_6,sink_22] 0
interdiction[sink_7,sink_24] 0
interdiction[sink_22,sink_1] 0
interdiction[sink_24,sink_21] 0
interdiction[sink_21,sink_12] 0
interdiction[sink_7,sink_5] 0
interdiction[sink_5,sink_17] 0
interdiction[sink_17,sink_4] 0
interdiction[sink_17,sink_8] 0
interdiction[sink_3,sink_23] 0
interdiction[sink_8,sink_20] 0
interdiction[sink_25,sink_20] 0
interdiction[sink_25,sink_15] 0
interdiction[sink_15,sink_29] 1
interdiction[sink_29,sink_28] 0
interdiction[sink_29,sink_2] 0
interdiction[sink_2,sink_15] 0
interdiction[sink_29,innode_7] 0
interdiction[innode_4,sink_19] 0
interdiction[sink_19,innode_3] 0
interdiction[innode_4,innode_5] 0
interdiction[sink_27,innode_5] 0
interdiction[sink_27,sink_19] 0
interdiction[sink_10,sink_11] 0
interdiction[sink_10,innode_2] 1
interdiction[sink_10,innode_3] 0
interdiction[innode_6,sink_25] 0
interdiction[sink_11,innode_1] 0
interdiction[sink_19,innode_2] 0
interdiction[source_3,innode_4] 0
interdiction[source_2,innode_7] 0
interdiction[sink_3,innode_8] 0
WCcheckFlow[source_1,sink_3] 39
WCcheckFlow[innode_1,sink_16] 1
WCcheckFlow[innode_6,sink_13] 13
WCcheckFlow[sink_13,sink_14] 12
WCcheckFlow[sink_14,sink_10] 11
WCcheckFlow[sink_25,sink_26] 15
WCcheckFlow[sink_26,sink_9] 13
WCcheckFlow[sink_9,sink_18] 12
WCcheckFlow[sink_26,sink_4] 1
WCcheckFlow[sink_4,sink_20] 0
WCcheckFlow[sink_18,sink_6] 11
WCcheckFlow[sink_25,innode_8] -36
WCcheckFlow[sink_6,sink_7] 8
WCcheckFlow[sink_6,sink_22] 2
WCcheckFlow[sink_7,sink_24] 3
WCcheckFlow[sink_22,sink_1] 1
WCcheckFlow[sink_24,sink_21] 2
WCcheckFlow[sink_21,sink_12] 1
WCcheckFlow[sink_7,sink_5] 4
WCcheckFlow[sink_5,sink_17] 3
WCcheckFlow[sink_17,sink_4] 0
WCcheckFlow[sink_17,sink_8] 2
WCcheckFlow[sink_3,sink_23] 1
WCcheckFlow[sink_8,sink_20] 1
WCcheckFlow[sink_25,sink_20] 0
WCcheckFlow[sink_25,sink_15] 6
WCcheckFlow[sink_15,sink_29] 0
WCcheckFlow[sink_29,sink_28] 1
WCcheckFlow[sink_29,sink_2] -4
WCcheckFlow[sink_2,sink_15] -5
WCcheckFlow[sink_29,innode_7] 2
WCcheckFlow[innode_4,sink_19] -4
WCcheckFlow[sink_19,innode_3] -6
WCcheckFlow[innode_4,innode_5] 2
WCcheckFlow[sink_27,innode_5] -1
WCcheckFlow[sink_27,sink_19] 0
WCcheckFlow[sink_10,sink_11] 3
WCcheckFlow[sink_10,innode_2] 0
WCcheckFlow[sink_10,innode_3] 7
WCcheckFlow[innode_6,sink_25] -14
WCcheckFlow[sink_11,innode_1] 2
WCcheckFlow[sink_19,innode_2] 1
WCcheckFlow[source_3,innode_4] -1
WCcheckFlow[source_2,innode_7] -1
WCcheckFlow[sink_3,innode_8] 37
